107464
52,62,38,51,40,77,68,24,41,54,22,11,2,42,56,33,48,46,59,80,71,50,26,32,6,55,16,57,76,8,70,35,65,19,66,75,25,69,13,61,79,53,45,44,28,9,0,63,72,12,36,17,20,31,73,39,10,15,37,34,29,1,14,60,5,78,27,82,7,58,67,74,81,43,21,4,18,47,23,30,64,49,3
